model_name='GCN_32_2'
gnn='GCN'
neurons='32'
layers='2'
state_dict.keys()=odict_keys(['layers.0.lin.weight', 'layers.1.lin.weight', 'fc11.weight', 'fc11.bias', 'fc12.weight', 'fc12.bias'])
Set parameter Username
Academic license - for non-commercial use only - expires 2023-06-18
Set parameter TimeLimit to value 100
Set parameter NonConvex to value 2
Warning: constraint name "min constr" has a space
Warning: Q constraint 0 doesn't have a name
Gurobi Optimizer version 9.5.1 build v9.5.1rc2 (linux64)
Thread count: 8 physical cores, 8 logical processors, using up to 8 threads
Optimize a model with 785 rows, 1725 columns and 3405 nonzeros
Model fingerprint: 0x282e97ce
Model has 256 quadratic constraints
Variable types: 737 continuous, 988 integer (968 binary)
Coefficient statistics:
  Matrix range     [4e-04, 2e+02]
  QMatrix range    [6e-04, 7e-01]
  QLMatrix range   [1e+00, 1e+00]
  Objective range  [1e+00, 1e+00]
  Bounds range     [4e-01, 2e+02]
  RHS range        [2e-02, 2e+02]
Presolve removed 82 rows and 714 columns
Presolve time: 0.05s
Presolved: 3535 rows, 1699 columns, 31926 nonzeros
Presolved model has 512 bilinear constraint(s)
Variable types: 1291 continuous, 408 integer (402 binary)

Root relaxation: objective 8.079994e+01, 3113 iterations, 0.34 seconds (0.46 work units)

    Nodes    |    Current Node    |     Objective Bounds      |     Work
 Expl Unexpl |  Obj  Depth IntInf | Incumbent    BestBd   Gap | It/Node Time

     0     0   80.63138    0  599          -   80.63138      -     -    0s
H    0     0                       1.4788234   80.63138  5352%     -    0s
H    0     0                       1.6865953   80.63138  4681%     -    0s
H    0     0                       1.6865953   80.63138  4681%     -    0s
     0     0   75.42256    0  598    1.68660   75.42256  4372%     -    1s
     0     0   72.03967    0  631    1.68660   72.03967  4171%     -    1s
     0     0   69.67608    0  661    1.68660   69.67608  4031%     -    2s
     0     0   60.38121    0  671    1.68660   60.38121  3480%     -    3s
     0     0   58.17777    0  684    1.68660   58.17777  3349%     -    5s
     0     0   58.15638    0  721    1.68660   58.15638  3348%     -    5s
     0     0   50.92535    0  793    1.68660   50.92535  2919%     -    7s
     0     0   49.39342    0  809    1.68660   49.39342  2829%     -    8s
     0     0   47.30528    0  809    1.68660   47.30528  2705%     -    9s
     0     0   46.53540    0  824    1.68660   46.53540  2659%     -    9s
     0     0   44.96333    0  818    1.68660   44.96333  2566%     -   10s
     0     0   44.71073    0  812    1.68660   44.71073  2551%     -   10s
     0     0   43.91693    0  827    1.68660   43.91693  2504%     -   11s
     0     0   43.48356    0  822    1.68660   43.48356  2478%     -   11s
     0     0   42.22614    0  816    1.68660   42.22614  2404%     -   13s
     0     0   42.00513    0  823    1.68660   42.00513  2391%     -   13s
     0     0   40.73845    0  823    1.68660   40.73845  2315%     -   14s
     0     0   40.57440    0  828    1.68660   40.57440  2306%     -   14s
     0     0   38.70757    0  826    1.68660   38.70757  2195%     -   15s
     0     0   38.53203    0  849    1.68660   38.53203  2185%     -   15s
     0     0   37.65435    0  837    1.68660   37.65435  2133%     -   16s
     0     0   37.59027    0  842    1.68660   37.59027  2129%     -   16s
     0     0   37.29044    0  842    1.68660   37.29044  2111%     -   17s
     0     0   36.69866    0  820    1.68660   36.69866  2076%     -   18s
     0     2   36.69866    0  820    1.68660   36.69866  2076%     -   19s
     1     4   36.62376    1  793    1.68660   36.69804  2076%   252   20s
    31    38   27.40438    6  214    1.68660   34.29241  1933%  1570   25s
   465   307 infeasible   33         1.68660   34.29241  1933%   207   30s
   872   507 infeasible   12         1.68660   33.70351  1898%   175   35s
  1485   823 infeasible   27         1.68660   33.46064  1884%   162   40s
  1605   824   23.93946   10  336    1.68660   33.46064  1884%   156   47s
  1608   826   21.81565    9  268    1.68660   33.46064  1884%   155   51s
  1611   828   24.42267    9  320    1.68660   32.89820  1851%   155   56s
  1614   830   25.30875   11  314    1.68660   30.93315  1734%   155   62s
  1616   831   19.90406   26  310    1.68660   30.05728  1682%   155   65s
  1619   833   21.95582   14  320    1.68660   28.82024  1609%   154   70s
  1622   835   10.00422   43  317    1.68660   27.92500  1556%   154   75s
  1626   838   20.27848   18  313    1.68660   27.49425  1530%   154   81s
  1628   839   11.77637   35  316    1.68660   27.29510  1518%   153   85s
  1632   842   16.86743   37  319    1.68660   26.99618  1501%   153   90s
  1636   845   20.77494   17  318    1.68660   26.90406  1495%   153   95s

Cutting planes:
  Learned: 5
  Gomory: 1
  Cover: 9
  Implied bound: 60
  Projected implied bound: 1
  Clique: 8
  MIR: 408
  Flow cover: 209
  Zero half: 5
  RLT: 133
  Relax-and-lift: 118
  BQP: 5

Explored 1638 nodes (306932 simplex iterations) in 100.04 seconds (95.74 work units)
Thread count was 8 (of 8 available processors)

Solution count 2: 1.6866 1.47882 

Time limit reached
Best objective 1.686595322916e+00, best bound 2.676992929673e+01, gap 1487.2171%
